
  32    4
   1   1   1   1

   0   0   0   0   0  17 2 3 4 5 6 7 8 9 10 11 15 16 17 18 29 30 31 
   9   0   1   0   1   5   23   22   21   13   12
   1   0   0   1   1   5   25   22   21   20   19
   10   1   1   1   1   4   24   21   14   12
   10   0   0   0   1   4   24   22   21   12
   1   0   1   0   0   3   28   25   19
   5   0   1   1   0   2   21   12
   7   1   0   0   1   2   21   19
   7   0   0   1   0   2   23   20
   10   0   1   0   0   2   27   20
   6   0   0   1   0   2   26   19
   5   0   0   1   0   1   19
   8   0   1   1   0   1   20
   10   0   1   1   1   1   19
   3   1   1   1   1   1   20
   4   1   0   0   1   1   20
   9   1   0   1   1   1   19
   3   0   0   1   1   1   19
   8   1   0   1   1   1   32
   6   0   1   1   1   1   32
   4   0   1   0   0   1   32
   3   0   1   1   1   1   32
   4   1   1   1   1   1   32
   2   0   1   0   1   1   32
   9   0   1   0   0   1   32
   7   1   1   1   0   1   32
   8   0   1   0   0   1   32
   2   0   1   0   0   1   32
   7   0   1   0   0   1   32
   10   1   1   1   0   1   32
   3   1   1   1   0   1   32
   0   0   0   0   0   0 
